(set-info :source |printed by MathSAT|)
(declare-fun call_excludes3.excludes.next () Bool)
(declare-fun mem_init_s.next () Int)
(declare-fun call_synapse.ite.next () Int)
(declare-fun call_synapse.ite12.next () Int)
(declare-fun call_synapse.dirty_s.next () Int)
(declare-fun call_synapse.ite7.next () Int)
(declare-fun call_synapse.ite16 () Int)
(declare-fun _OK_ () Bool)
(declare-fun call_synapse.ite8.next () Int)
(declare-fun call_First.flby.next () Int)
(declare-fun call_synapse.ite6.next () Int)
(declare-fun call_synapse.ite13 () Int)
(declare-fun call_synapse.invalid_s.next () Int)
(declare-fun call_synapse.ite7 () Int)
(declare-fun call_synapse.ite12 () Int)
(declare-fun call_synapse.ite14 () Int)
(declare-fun call_synapse.ite17.next () Int)
(declare-fun call_Sofar.flby () Bool)
(declare-fun dirty_s.next () Int)
(declare-fun call_synapse.valid_s.next () Int)
(declare-fun call_synapse.garde_s1.next () Bool)
(declare-fun call_synapse.ite11 () Int)
(declare-fun mem_init_s () Int)
(declare-fun call_synapse.ite15.next () Int)
(declare-fun valid_s.next () Int)
(declare-fun call_synapse.garde_s2.next () Bool)
(declare-fun call_synapse.flby () Int)
(declare-fun _OK_.next () Bool)
(declare-fun call_synapse.dirty_s () Int)
(declare-fun call_synapse.invalid_s () Int)
(declare-fun call_synapse.mem_init_s () Int)
(declare-fun call_synapse.flby.next () Int)
(declare-fun call_synapse.ite4 () Int)
(declare-fun call_synapse.flby4 () Int)
(declare-fun call_synapse.mem_init_s.next () Int)
(declare-fun call_synapse.ite18 () Int)
(declare-fun call_synapse.ite18.next () Int)
(declare-fun param_e_s1.next () Bool)
(declare-fun call_First.flby () Int)
(declare-fun call_synapse.ite10.next () Int)
(declare-fun call_synapse.ite2.next () Int)
(declare-fun call_synapse.valid_s () Int)
(declare-fun call_First.First () Int)
(declare-fun call_synapse.flby3 () Int)
(declare-fun call_synapse.flby4.next () Int)
(declare-fun invalid_s.next () Int)
(declare-fun invalid_s () Int)
(declare-fun call_Sofar.flby.next () Bool)
(declare-fun param_e_s2.next () Bool)
(declare-fun param_e_s3 () Bool)
(declare-fun call_excludes3.excludes () Bool)
(declare-fun call_First.First.next () Int)
(declare-fun call_synapse.garde_s3.next () Bool)
(declare-fun valid_s () Int)
(declare-fun call_synapse.ite13.next () Int)
(declare-fun call_synapse.ite9.next () Int)
(declare-fun call_synapse.ite10 () Int)
(declare-fun call_synapse.ite5 () Int)
(declare-fun call_synapse.ite2 () Int)
(declare-fun param_e_s2 () Bool)
(declare-fun dirty_s () Int)
(declare-fun call_synapse.ite14.next () Int)
(declare-fun call_synapse.flby2.next () Int)
(declare-fun call_synapse.ite4.next () Int)
(declare-fun env.next () Bool)
(declare-fun call_synapse.flby2 () Int)
(declare-fun call_synapse.ite () Int)
(declare-fun call_Sofar.Sofar.next () Bool)
(declare-fun call_synapse.ite11.next () Int)
(declare-fun param_e_s3.next () Bool)
(declare-fun call_synapse.ite5.next () Int)
(declare-fun call_Sofar.Sofar () Bool)
(declare-fun param_init_invalid_s.next () Int)
(declare-fun call_synapse.ite16.next () Int)
(declare-fun env () Bool)
(declare-fun call_synapse.ite17 () Int)
(declare-fun param_e_s1 () Bool)
(declare-fun call_synapse.ite6 () Int)
(declare-fun call_synapse.ite8 () Int)
(declare-fun call_synapse.ite3.next () Int)
(declare-fun call_synapse.flby3.next () Int)
(define-fun .def_844 () Bool (= call_First.flby.next call_First.First.next))
(define-fun .def_842 () Bool (= call_Sofar.flby.next call_Sofar.Sofar.next))
(define-fun .def_837 () Bool (and param_e_s3.next param_e_s2.next))
(define-fun .def_835 () Bool (and param_e_s3.next param_e_s1.next))
(define-fun .def_834 () Bool (and param_e_s1.next param_e_s2.next))
(define-fun .def_836 () Bool (or .def_834 .def_835))
(define-fun .def_838 () Bool (or .def_836 .def_837))
(define-fun .def_839 () Bool (not .def_838))
(define-fun .def_840 () Bool (= call_excludes3.excludes.next .def_839))
(define-fun .def_832 () Bool (= call_synapse.flby.next call_synapse.mem_init_s.next))
(define-fun .def_830 () Bool (= call_synapse.flby4.next call_synapse.dirty_s.next))
(define-fun .def_828 () Bool (= call_synapse.flby3.next call_synapse.valid_s.next))
(define-fun .def_826 () Bool (= call_synapse.flby2.next call_synapse.invalid_s.next))
(define-fun .def_822 () Bool (= call_synapse.ite16.next call_synapse.ite17.next))
(define-fun .def_823 () Bool (or param_e_s2.next .def_822))
(define-fun .def_819 () Bool (= call_synapse.ite14.next call_synapse.ite17.next))
(define-fun .def_810 () Bool (not param_e_s2.next))
(define-fun .def_820 () Bool (or .def_810 .def_819))
(define-fun .def_816 () Bool (= call_synapse.ite10.next call_synapse.ite11.next))
(define-fun .def_817 () Bool (or param_e_s2.next .def_816))
(define-fun .def_813 () Bool (= call_synapse.ite8.next call_synapse.ite11.next))
(define-fun .def_814 () Bool (or .def_810 .def_813))
(define-fun .def_809 () Bool (= call_synapse.ite2.next call_synapse.ite5.next))
(define-fun .def_811 () Bool (or .def_809 .def_810))
(define-fun .def_806 () Bool (= call_synapse.ite4.next call_synapse.ite5.next))
(define-fun .def_808 () Bool (or .def_806 param_e_s2.next))
(define-fun .def_812 () Bool (and .def_808 .def_811))
(define-fun .def_815 () Bool (and .def_812 .def_814))
(define-fun .def_818 () Bool (and .def_815 .def_817))
(define-fun .def_821 () Bool (and .def_818 .def_820))
(define-fun .def_824 () Bool (and .def_821 .def_823))
(define-fun .def_802 () Bool (= call_synapse.ite18.next call_synapse.ite17.next))
(define-fun .def_803 () Bool (or param_e_s1.next .def_802))
(define-fun .def_798 () Bool (= call_synapse.ite13.next call_synapse.ite18.next))
(define-fun .def_788 () Bool (not param_e_s1.next))
(define-fun .def_799 () Bool (or .def_788 .def_798))
(define-fun .def_795 () Bool (= call_synapse.ite12.next call_synapse.ite11.next))
(define-fun .def_796 () Bool (or param_e_s1.next .def_795))
(define-fun .def_791 () Bool (= call_synapse.ite7.next call_synapse.ite12.next))
(define-fun .def_792 () Bool (or .def_788 .def_791))
(define-fun .def_787 () Bool (= call_synapse.ite.next call_synapse.ite6.next))
(define-fun .def_789 () Bool (or .def_787 .def_788))
(define-fun .def_784 () Bool (= call_synapse.ite6.next call_synapse.ite5.next))
(define-fun .def_786 () Bool (or .def_784 param_e_s1.next))
(define-fun .def_790 () Bool (and .def_786 .def_789))
(define-fun .def_793 () Bool (and .def_790 .def_792))
(define-fun .def_797 () Bool (and .def_793 .def_796))
(define-fun .def_800 () Bool (and .def_797 .def_799))
(define-fun .def_804 () Bool (and .def_800 .def_803))
(define-fun .def_781 () Bool (= env.next call_Sofar.Sofar.next))
(define-fun .def_778 () Bool (= mem_init_s.next call_synapse.mem_init_s.next))
(define-fun .def_774 () Bool (= dirty_s.next call_synapse.dirty_s.next))
(define-fun .def_771 () Bool (= valid_s.next call_synapse.valid_s.next))
(define-fun .def_768 () Bool (= invalid_s.next call_synapse.invalid_s.next))
(define-fun .def_760 () Int (* (- 1) call_First.First.next))
(define-fun .def_761 () Int (+ dirty_s.next .def_760))
(define-fun .def_762 () Int (+ valid_s.next .def_761))
(define-fun .def_763 () Int (+ invalid_s.next .def_762))
(define-fun .def_764 () Bool (= .def_763 0))
(define-fun .def_749 () Bool (not env.next))
(define-fun .def_765 () Bool (or .def_749 .def_764))
(define-fun .def_766 () Bool (= _OK_.next .def_765))
(define-fun .def_769 () Bool (and .def_766 .def_768))
(define-fun .def_772 () Bool (and .def_769 .def_771))
(define-fun .def_775 () Bool (and .def_772 .def_774))
(define-fun .def_779 () Bool (and .def_775 .def_778))
(define-fun .def_782 () Bool (and .def_779 .def_781))
(define-fun .def_805 () Bool (and .def_782 .def_804))
(define-fun .def_825 () Bool (and .def_805 .def_824))
(define-fun .def_827 () Bool (and .def_825 .def_826))
(define-fun .def_829 () Bool (and .def_827 .def_828))
(define-fun .def_831 () Bool (and .def_829 .def_830))
(define-fun .def_833 () Bool (and .def_831 .def_832))
(define-fun .def_841 () Bool (and .def_833 .def_840))
(define-fun .def_843 () Bool (and .def_841 .def_842))
(define-fun .def_845 () Bool (and .def_843 .def_844))
(define-fun .def_595 () Bool (= call_First.flby call_First.First))
(define-fun .def_593 () Bool (= call_Sofar.flby call_Sofar.Sofar))
(define-fun .def_588 () Bool (and param_e_s3 param_e_s2))
(define-fun .def_586 () Bool (and param_e_s3 param_e_s1))
(define-fun .def_585 () Bool (and param_e_s1 param_e_s2))
(define-fun .def_587 () Bool (or .def_585 .def_586))
(define-fun .def_589 () Bool (or .def_587 .def_588))
(define-fun .def_590 () Bool (not .def_589))
(define-fun .def_591 () Bool (= call_excludes3.excludes .def_590))
(define-fun .def_583 () Bool (= call_synapse.flby call_synapse.mem_init_s))
(define-fun .def_581 () Bool (= call_synapse.flby4 call_synapse.dirty_s))
(define-fun .def_579 () Bool (= call_synapse.flby3 call_synapse.valid_s))
(define-fun .def_577 () Bool (= call_synapse.flby2 call_synapse.invalid_s))
(define-fun .def_573 () Bool (= call_synapse.ite16 call_synapse.ite17))
(define-fun .def_574 () Bool (or param_e_s2 .def_573))
(define-fun .def_570 () Bool (= call_synapse.ite14 call_synapse.ite17))
(define-fun .def_561 () Bool (not param_e_s2))
(define-fun .def_571 () Bool (or .def_561 .def_570))
(define-fun .def_567 () Bool (= call_synapse.ite10 call_synapse.ite11))
(define-fun .def_568 () Bool (or param_e_s2 .def_567))
(define-fun .def_564 () Bool (= call_synapse.ite8 call_synapse.ite11))
(define-fun .def_565 () Bool (or .def_561 .def_564))
(define-fun .def_560 () Bool (= call_synapse.ite5 call_synapse.ite2))
(define-fun .def_562 () Bool (or .def_560 .def_561))
(define-fun .def_556 () Bool (= call_synapse.ite4 call_synapse.ite5))
(define-fun .def_558 () Bool (or .def_556 param_e_s2))
(define-fun .def_563 () Bool (and .def_558 .def_562))
(define-fun .def_566 () Bool (and .def_563 .def_565))
(define-fun .def_569 () Bool (and .def_566 .def_568))
(define-fun .def_572 () Bool (and .def_569 .def_571))
(define-fun .def_575 () Bool (and .def_572 .def_574))
(define-fun .def_552 () Bool (= call_synapse.ite18 call_synapse.ite17))
(define-fun .def_553 () Bool (or param_e_s1 .def_552))
(define-fun .def_548 () Bool (= call_synapse.ite13 call_synapse.ite18))
(define-fun .def_535 () Bool (not param_e_s1))
(define-fun .def_549 () Bool (or .def_535 .def_548))
(define-fun .def_544 () Bool (= call_synapse.ite12 call_synapse.ite11))
(define-fun .def_545 () Bool (or param_e_s1 .def_544))
(define-fun .def_540 () Bool (= call_synapse.ite7 call_synapse.ite12))
(define-fun .def_541 () Bool (or .def_535 .def_540))
(define-fun .def_534 () Bool (= call_synapse.ite6 call_synapse.ite))
(define-fun .def_536 () Bool (or .def_534 .def_535))
(define-fun .def_530 () Bool (= call_synapse.ite6 call_synapse.ite5))
(define-fun .def_532 () Bool (or .def_530 param_e_s1))
(define-fun .def_537 () Bool (and .def_532 .def_536))
(define-fun .def_542 () Bool (and .def_537 .def_541))
(define-fun .def_546 () Bool (and .def_542 .def_545))
(define-fun .def_550 () Bool (and .def_546 .def_549))
(define-fun .def_554 () Bool (and .def_550 .def_553))
(define-fun .def_526 () Bool (= env call_Sofar.Sofar))
(define-fun .def_523 () Bool (= call_synapse.mem_init_s mem_init_s))
(define-fun .def_520 () Bool (= dirty_s call_synapse.dirty_s))
(define-fun .def_517 () Bool (= valid_s call_synapse.valid_s))
(define-fun .def_514 () Bool (= invalid_s call_synapse.invalid_s))
(define-fun .def_506 () Int (* (- 1) call_First.First))
(define-fun .def_507 () Int (+ dirty_s .def_506))
(define-fun .def_508 () Int (+ valid_s .def_507))
(define-fun .def_509 () Int (+ invalid_s .def_508))
(define-fun .def_510 () Bool (= .def_509 0))
(define-fun .def_495 () Bool (not env))
(define-fun .def_511 () Bool (or .def_495 .def_510))
(define-fun .def_512 () Bool (= _OK_ .def_511))
(define-fun .def_515 () Bool (and .def_512 .def_514))
(define-fun .def_518 () Bool (and .def_515 .def_517))
(define-fun .def_521 () Bool (and .def_518 .def_520))
(define-fun .def_524 () Bool (and .def_521 .def_523))
(define-fun .def_527 () Bool (and .def_524 .def_526))
(define-fun .def_555 () Bool (and .def_527 .def_554))
(define-fun .def_576 () Bool (and .def_555 .def_575))
(define-fun .def_578 () Bool (and .def_576 .def_577))
(define-fun .def_580 () Bool (and .def_578 .def_579))
(define-fun .def_582 () Bool (and .def_580 .def_581))
(define-fun .def_584 () Bool (and .def_582 .def_583))
(define-fun .def_592 () Bool (and .def_584 .def_591))
(define-fun .def_594 () Bool (and .def_592 .def_593))
(define-fun .def_596 () Bool (and .def_594 .def_595))
(define-fun .def_846 () Bool (and .def_596 .def_845))
(define-fun .def_745 () Bool (= call_First.First call_First.flby.next))
(define-fun .def_737 () Bool (<= 0 param_init_invalid_s.next))
(define-fun .def_739 () Bool (and .def_737 call_excludes3.excludes.next))
(define-fun .def_740 () Bool (and call_Sofar.Sofar .def_739))
(define-fun .def_742 () Bool (= .def_740 call_Sofar.flby.next))
(define-fun .def_734 () Bool (= call_synapse.ite18.next call_synapse.flby4.next))
(define-fun .def_730 () Bool (= call_synapse.ite12.next call_synapse.flby3.next))
(define-fun .def_726 () Bool (= call_synapse.ite6.next call_synapse.flby2.next))
(define-fun .def_722 () Bool (= call_synapse.mem_init_s call_synapse.flby.next))
(define-fun .def_700 () Bool (<= 1 call_synapse.invalid_s))
(define-fun .def_718 () Bool (= call_synapse.garde_s3.next .def_700))
(define-fun .def_715 () Bool (= call_synapse.ite9.next 0))
(define-fun .def_640 () Bool (not call_synapse.garde_s3.next))
(define-fun .def_716 () Bool (or .def_640 .def_715))
(define-fun .def_713 () Bool (= call_synapse.ite15.next 1))
(define-fun .def_714 () Bool (or .def_640 .def_713))
(define-fun .def_717 () Bool (and .def_714 .def_716))
(define-fun .def_719 () Bool (and .def_717 .def_718))
(define-fun .def_709 () Bool (<= 1 call_synapse.valid_s))
(define-fun .def_710 () Bool (= call_synapse.garde_s2.next .def_709))
(define-fun .def_706 () Bool (= call_synapse.ite8.next 0))
(define-fun .def_624 () Bool (not call_synapse.garde_s2.next))
(define-fun .def_707 () Bool (or .def_624 .def_706))
(define-fun .def_704 () Bool (= call_synapse.ite14.next 1))
(define-fun .def_705 () Bool (or .def_624 .def_704))
(define-fun .def_708 () Bool (and .def_705 .def_707))
(define-fun .def_711 () Bool (and .def_708 .def_710))
(define-fun .def_701 () Bool (= call_synapse.garde_s1.next .def_700))
(define-fun .def_698 () Bool (= call_synapse.ite13.next 0))
(define-fun .def_608 () Bool (not call_synapse.garde_s1.next))
(define-fun .def_699 () Bool (or .def_608 .def_698))
(define-fun .def_702 () Bool (and .def_699 .def_701))
(define-fun .def_694 () Bool (= call_synapse.dirty_s call_synapse.ite15.next))
(define-fun .def_695 () Bool (or call_synapse.garde_s3.next .def_694))
(define-fun .def_691 () Bool (= call_synapse.dirty_s call_synapse.ite13.next))
(define-fun .def_692 () Bool (or call_synapse.garde_s1.next .def_691))
(define-fun .def_688 () Bool (= call_synapse.dirty_s call_synapse.ite14.next))
(define-fun .def_689 () Bool (or call_synapse.garde_s2.next .def_688))
(define-fun .def_693 () Bool (and .def_689 .def_692))
(define-fun .def_696 () Bool (and .def_693 .def_695))
(define-fun .def_683 () Bool (= call_synapse.valid_s call_synapse.ite9.next))
(define-fun .def_684 () Bool (or call_synapse.garde_s3.next .def_683))
(define-fun .def_680 () Bool (= call_synapse.valid_s call_synapse.ite8.next))
(define-fun .def_681 () Bool (or call_synapse.garde_s2.next .def_680))
(define-fun .def_674 () Int (* (- 1) call_synapse.ite7.next))
(define-fun .def_675 () Int (+ call_synapse.valid_s .def_674))
(define-fun .def_676 () Bool (= .def_675 (- 1)))
(define-fun .def_677 () Bool (or .def_608 .def_676))
(define-fun .def_672 () Bool (= call_synapse.valid_s call_synapse.ite7.next))
(define-fun .def_673 () Bool (or call_synapse.garde_s1.next .def_672))
(define-fun .def_678 () Bool (and .def_673 .def_677))
(define-fun .def_682 () Bool (and .def_678 .def_681))
(define-fun .def_685 () Bool (and .def_682 .def_684))
(define-fun .def_667 () Bool (= call_synapse.dirty_s call_synapse.ite16.next))
(define-fun .def_668 () Bool (or param_e_s3.next .def_667))
(define-fun .def_664 () Bool (= call_synapse.ite15.next call_synapse.ite16.next))
(define-fun .def_651 () Bool (not param_e_s3.next))
(define-fun .def_665 () Bool (or .def_651 .def_664))
(define-fun .def_659 () Bool (= call_synapse.valid_s call_synapse.ite10.next))
(define-fun .def_660 () Bool (or param_e_s3.next .def_659))
(define-fun .def_656 () Bool (= call_synapse.ite9.next call_synapse.ite10.next))
(define-fun .def_657 () Bool (or .def_651 .def_656))
(define-fun .def_650 () Bool (= call_synapse.ite3.next call_synapse.ite4.next))
(define-fun .def_652 () Bool (or .def_650 .def_651))
(define-fun .def_647 () Bool (= call_synapse.invalid_s call_synapse.ite4.next))
(define-fun .def_649 () Bool (or .def_647 param_e_s3.next))
(define-fun .def_653 () Bool (and .def_649 .def_652))
(define-fun .def_658 () Bool (and .def_653 .def_657))
(define-fun .def_661 () Bool (and .def_658 .def_660))
(define-fun .def_666 () Bool (and .def_661 .def_665))
(define-fun .def_669 () Bool (and .def_666 .def_668))
(define-fun .def_643 () Bool (= call_synapse.invalid_s call_synapse.ite3.next))
(define-fun .def_644 () Bool (or call_synapse.garde_s3.next .def_643))
(define-fun .def_631 () Int (* (- 1) call_synapse.ite3.next))
(define-fun .def_635 () Int (+ call_synapse.dirty_s .def_631))
(define-fun .def_636 () Int (+ call_synapse.valid_s .def_635))
(define-fun .def_637 () Int (+ call_synapse.invalid_s .def_636))
(define-fun .def_638 () Bool (= .def_637 1))
(define-fun .def_641 () Bool (or .def_638 .def_640))
(define-fun .def_627 () Bool (= call_synapse.invalid_s call_synapse.ite2.next))
(define-fun .def_628 () Bool (or call_synapse.garde_s2.next .def_627))
(define-fun .def_617 () Int (* (- 1) call_synapse.ite2.next))
(define-fun .def_618 () Int (* (- 1) call_synapse.dirty_s))
(define-fun .def_619 () Int (+ .def_618 .def_617))
(define-fun .def_620 () Int (+ call_synapse.valid_s .def_619))
(define-fun .def_621 () Int (+ call_synapse.invalid_s .def_620))
(define-fun .def_622 () Bool (= .def_621 1))
(define-fun .def_625 () Bool (or .def_622 .def_624))
(define-fun .def_602 () Int (* (- 1) call_synapse.ite.next))
(define-fun .def_605 () Int (+ call_synapse.dirty_s .def_602))
(define-fun .def_606 () Int (+ call_synapse.invalid_s .def_605))
(define-fun .def_607 () Bool (= .def_606 0))
(define-fun .def_609 () Bool (or .def_607 .def_608))
(define-fun .def_599 () Bool (= call_synapse.invalid_s call_synapse.ite.next))
(define-fun .def_601 () Bool (or .def_599 call_synapse.garde_s1.next))
(define-fun .def_610 () Bool (and .def_601 .def_609))
(define-fun .def_626 () Bool (and .def_610 .def_625))
(define-fun .def_629 () Bool (and .def_626 .def_628))
(define-fun .def_642 () Bool (and .def_629 .def_641))
(define-fun .def_645 () Bool (and .def_642 .def_644))
(define-fun .def_670 () Bool (and .def_645 .def_669))
(define-fun .def_686 () Bool (and .def_670 .def_685))
(define-fun .def_697 () Bool (and .def_686 .def_696))
(define-fun .def_703 () Bool (and .def_697 .def_702))
(define-fun .def_712 () Bool (and .def_703 .def_711))
(define-fun .def_720 () Bool (and .def_712 .def_719))
(define-fun .def_723 () Bool (and .def_720 .def_722))
(define-fun .def_727 () Bool (and .def_723 .def_726))
(define-fun .def_731 () Bool (and .def_727 .def_730))
(define-fun .def_735 () Bool (and .def_731 .def_734))
(define-fun .def_743 () Bool (and .def_735 .def_742))
(define-fun .def_746 () Bool (and .def_743 .def_745))
(define-fun .def_847 () Bool (and .def_746 .def_846))
(assert .def_847)
